% seed = 6757269

mint = 67;
% maxt = 222;

nActs = 42;
dur = [0,4,7,7,6,8,8,9,10,7,6,2,5,6,7,2,7,2,3,5,2,2,5,5,3,10,1,8,3,1,5,4,10,4,3,10,9,3,8,8,7,0];

nSkills = 4;
sreq = [| 0,0,0,0,
	| 2,4,0,2,
	| 7,5,0,5,
	| 0,3,5,5,
	| 7,5,0,7,
	| 3,4,4,0,
	| 4,2,0,3,
	| 4,6,0,6,
	| 0,3,4,5,
	| 0,1,6,2,
	| 0,6,5,4,
	| 5,0,5,5,
	| 2,0,3,3,
	| 4,5,5,0,
	| 1,0,3,4,
	| 6,0,4,2,
	| 7,0,4,3,
	| 0,4,7,6,
	| 6,2,7,0,
	| 2,2,1,0,
	| 0,1,2,3,
	| 1,7,7,0,
	| 2,0,1,4,
	| 5,6,0,5,
	| 4,3,0,3,
	| 0,2,4,5,
	| 2,0,4,4,
	| 2,0,3,3,
	| 3,0,5,3,
	| 0,5,1,3,
	| 4,0,6,5,
	| 3,0,2,3,
	| 7,0,4,2,
	| 5,3,0,4,
	| 7,5,5,0,
	| 4,0,3,7,
	| 2,7,2,0,
	| 6,4,0,3,
	| 6,7,1,0,
	| 0,3,4,6,
	| 0,1,3,6,
	| 0,0,0,0, |];

nResources = 38;
mastery = [| false,true,true,true,
	| false,false,true,true,
	| false,false,false,true,
	| true,true,false,false,
	| true,true,false,true,
	| true,true,false,false,
	| false,true,false,false,
	| true,false,true,false,
	| true,true,false,false,
	| false,false,true,true,
	| true,true,true,false,
	| true,false,true,false,
	| true,false,false,false,
	| true,false,true,true,
	| false,false,true,false,
	| false,false,true,true,
	| false,true,true,true,
	| true,true,true,false,
	| true,true,false,true,
	| true,false,true,false,
	| true,false,true,true,
	| false,true,false,false,
	| true,true,false,false,
	| false,true,true,false,
	| false,true,false,true,
	| false,true,true,true,
	| true,true,false,true,
	| false,true,true,false,
	| false,true,true,false,
	| false,true,false,false,
	| true,false,true,false,
	| false,true,false,false,
	| true,false,false,false,
	| true,true,false,true,
	| true,true,true,false,
	| false,true,false,false,
	| true,false,true,false,
	| false,false,true,false, |];

nPrecs = 73;
pred = [1,1,1,2,2,2,3,3,3,4,4,5,5,5,6,6,6,7,8,9,9,9,10,10,11,11,12,13,13,13,14,15,15,16,16,17,18,18,18,19,19,19,20,20,20,21,21,22,23,24,25,26,27,27,27,28,29,30,31,32,33,34,34,35,35,36,36,37,37,38,39,40,41];
succ = [2,3,4,9,10,8,9,5,15,20,14,13,6,7,12,14,8,28,11,17,23,16,19,20,33,34,30,19,27,16,22,18,32,28,21,29,26,30,24,34,22,24,35,21,40,37,22,25,30,25,31,28,29,37,32,36,36,38,41,33,36,38,40,41,39,38,40,41,39,39,42,42,42];

nUnrels = 472;
unpred = [2,2,2,2,2,2,2,2,2,2,2,2,2,3,3,3,3,4,4,4,4,4,4,4,4,4,4,4,4,4,4,4,4,4,4,4,4,4,4,4,4,4,4,5,5,5,5,5,5,5,5,5,6,6,6,6,6,6,6,6,6,6,6,6,6,6,6,6,6,6,6,6,7,7,7,7,7,7,7,7,7,7,7,7,7,7,7,7,7,7,7,7,7,7,7,7,7,7,7,7,7,8,8,8,8,8,8,8,8,8,8,8,8,8,8,8,8,8,8,8,8,8,8,8,8,8,8,9,9,9,9,9,9,9,9,9,9,9,9,9,9,9,9,10,10,10,10,10,10,10,10,10,10,10,10,10,10,10,10,10,11,11,11,11,11,11,11,11,11,11,11,11,11,11,11,11,11,11,11,11,11,11,11,11,12,12,12,12,12,12,12,12,12,12,12,12,12,12,12,12,12,12,12,12,12,12,12,12,12,12,13,13,13,13,13,13,13,13,13,14,14,14,14,14,14,14,14,14,14,14,14,14,14,14,14,14,14,14,14,14,14,14,15,15,15,15,15,15,15,15,15,15,15,15,16,16,16,16,16,16,16,16,16,16,16,16,16,16,17,17,17,17,17,17,17,17,17,17,17,17,17,17,17,17,17,17,17,18,18,18,18,18,18,18,18,18,18,18,18,19,19,19,19,19,19,19,19,19,19,19,19,19,20,20,20,20,20,20,20,20,20,20,20,20,21,21,21,21,21,21,21,21,21,21,21,21,21,21,22,22,22,22,22,22,22,22,22,22,22,22,22,22,22,22,23,23,23,23,23,23,23,23,23,23,23,23,23,23,23,24,24,24,24,24,24,24,24,24,24,24,24,24,24,25,25,25,25,25,25,25,25,25,25,25,25,25,25,26,26,26,26,26,26,26,26,26,26,27,27,27,27,27,28,28,28,28,28,28,28,28,28,29,29,29,29,29,29,29,29,30,30,30,30,30,30,30,30,30,31,31,31,31,31,31,31,31,31,32,32,32,32,33,33,33,33,34,34,34,34,35,35,35,35,36,36,37,37,38,38,39,39,40];
unsucc = [3,4,5,6,7,12,13,14,15,18,26,27,32,4,10,20,35,5,6,7,8,9,10,11,12,13,15,16,17,18,19,23,24,26,27,28,29,30,32,33,34,36,38,9,10,15,17,18,20,23,26,35,7,9,10,13,15,16,17,18,19,20,21,23,24,26,27,28,29,32,35,37,8,9,10,11,12,13,14,15,16,17,18,19,20,21,22,23,24,25,26,27,29,30,31,32,33,34,35,37,41,9,10,12,13,14,15,16,17,18,19,20,21,22,23,24,25,26,27,28,29,30,31,32,35,37,41,10,11,12,13,14,15,18,19,20,24,26,27,32,33,34,35,11,12,13,14,15,16,17,18,23,26,27,28,29,30,32,33,36,12,13,14,15,16,17,18,19,20,21,22,23,24,25,26,27,28,29,30,31,32,35,37,41,13,14,15,16,17,18,19,20,21,22,23,24,25,26,27,28,29,31,32,33,34,35,36,37,40,41,14,15,17,18,20,23,26,30,35,15,16,17,18,19,20,21,23,24,26,27,28,29,30,32,33,34,35,36,37,38,39,40,16,17,19,20,21,22,23,27,29,34,35,37,17,18,19,20,23,24,26,27,29,30,32,33,34,35,18,19,20,21,22,23,24,25,26,27,28,30,31,32,33,34,35,37,41,19,20,21,22,23,27,29,32,33,34,35,37,20,21,23,26,27,28,29,30,32,33,35,36,37,23,24,26,27,28,29,30,32,33,34,36,38,23,24,26,27,28,29,30,32,33,34,35,36,38,40,23,24,26,27,28,29,30,32,33,34,35,36,37,38,39,40,24,25,26,27,28,29,31,32,33,34,35,36,37,40,41,26,27,28,29,30,32,33,34,35,36,37,38,39,40,26,27,28,29,30,32,33,34,35,36,37,38,39,40,27,29,30,31,32,33,34,35,37,41,28,30,31,34,35,29,30,31,32,33,34,35,37,41,30,31,32,33,34,35,37,41,31,32,33,34,35,36,37,40,41,32,33,34,35,36,37,38,39,40,34,35,37,41,34,35,37,41,35,36,37,41,36,37,38,40,37,41,38,40,40,41,40,41,41];

USEFUL_RES = [{},
	{1,2,3,4,5,6,7,8,9,10,11,12,13,14,16,17,18,19,20,21,22,23,24,25,26,27,28,29,30,31,32,33,34,35,36,37},
	{1,2,3,4,5,6,7,8,9,10,11,12,13,14,16,17,18,19,20,21,22,23,24,25,26,27,28,29,30,31,32,33,34,35,36,37},
	{1,2,3,4,5,6,7,8,9,10,11,12,14,15,16,17,18,19,20,21,22,23,24,25,26,27,28,29,30,31,32,34,35,36,37,38},
	{1,2,3,4,5,6,7,8,9,10,11,12,13,14,16,17,18,19,20,21,22,23,24,25,26,27,28,29,30,31,32,33,34,35,36,37},
	{1,2,4,5,6,7,8,9,10,11,12,13,14,15,16,17,18,19,20,21,22,23,24,25,26,27,28,29,30,31,32,33,34,35,36,37,38},
	{1,2,3,4,5,6,7,8,9,10,11,12,13,14,16,17,18,19,20,21,22,23,24,25,26,27,28,29,30,31,32,33,34,35,36,37},
	{1,2,3,4,5,6,7,8,9,10,11,12,13,14,16,17,18,19,20,21,22,23,24,25,26,27,28,29,30,31,32,33,34,35,36,37},
	{1,2,3,4,5,6,7,8,9,10,11,12,14,15,16,17,18,19,20,21,22,23,24,25,26,27,28,29,30,31,32,34,35,36,37,38},
	{1,2,3,4,5,6,7,8,9,10,11,12,14,15,16,17,18,19,20,21,22,23,24,25,26,27,28,29,30,31,32,34,35,36,37,38},
	{1,2,3,4,5,6,7,8,9,10,11,12,14,15,16,17,18,19,20,21,22,23,24,25,26,27,28,29,30,31,32,34,35,36,37,38},
	{1,2,3,4,5,6,8,9,10,11,12,13,14,15,16,17,18,19,20,21,23,24,25,26,27,28,29,31,33,34,35,37,38},
	{1,2,3,4,5,6,8,9,10,11,12,13,14,15,16,17,18,19,20,21,23,24,25,26,27,28,29,31,33,34,35,37,38},
	{1,2,4,5,6,7,8,9,10,11,12,13,14,15,16,17,18,19,20,21,22,23,24,25,26,27,28,29,30,31,32,33,34,35,36,37,38},
	{1,2,3,4,5,6,8,9,10,11,12,13,14,15,16,17,18,19,20,21,23,24,25,26,27,28,29,31,33,34,35,37,38},
	{1,2,3,4,5,6,8,9,10,11,12,13,14,15,16,17,18,19,20,21,23,24,25,26,27,28,29,31,33,34,35,37,38},
	{1,2,3,4,5,6,8,9,10,11,12,13,14,15,16,17,18,19,20,21,23,24,25,26,27,28,29,31,33,34,35,37,38},
	{1,2,3,4,5,6,7,8,9,10,11,12,14,15,16,17,18,19,20,21,22,23,24,25,26,27,28,29,30,31,32,34,35,36,37,38},
	{1,2,4,5,6,7,8,9,10,11,12,13,14,15,16,17,18,19,20,21,22,23,24,25,26,27,28,29,30,31,32,33,34,35,36,37,38},
	{1,2,4,5,6,7,8,9,10,11,12,13,14,15,16,17,18,19,20,21,22,23,24,25,26,27,28,29,30,31,32,33,34,35,36,37,38},
	{1,2,3,4,5,6,7,8,9,10,11,12,14,15,16,17,18,19,20,21,22,23,24,25,26,27,28,29,30,31,32,34,35,36,37,38},
	{1,2,4,5,6,7,8,9,10,11,12,13,14,15,16,17,18,19,20,21,22,23,24,25,26,27,28,29,30,31,32,33,34,35,36,37,38},
	{1,2,3,4,5,6,8,9,10,11,12,13,14,15,16,17,18,19,20,21,23,24,25,26,27,28,29,31,33,34,35,37,38},
	{1,2,3,4,5,6,7,8,9,10,11,12,13,14,16,17,18,19,20,21,22,23,24,25,26,27,28,29,30,31,32,33,34,35,36,37},
	{1,2,3,4,5,6,7,8,9,10,11,12,13,14,16,17,18,19,20,21,22,23,24,25,26,27,28,29,30,31,32,33,34,35,36,37},
	{1,2,3,4,5,6,7,8,9,10,11,12,14,15,16,17,18,19,20,21,22,23,24,25,26,27,28,29,30,31,32,34,35,36,37,38},
	{1,2,3,4,5,6,8,9,10,11,12,13,14,15,16,17,18,19,20,21,23,24,25,26,27,28,29,31,33,34,35,37,38},
	{1,2,3,4,5,6,8,9,10,11,12,13,14,15,16,17,18,19,20,21,23,24,25,26,27,28,29,31,33,34,35,37,38},
	{1,2,3,4,5,6,8,9,10,11,12,13,14,15,16,17,18,19,20,21,23,24,25,26,27,28,29,31,33,34,35,37,38},
	{1,2,3,4,5,6,7,8,9,10,11,12,14,15,16,17,18,19,20,21,22,23,24,25,26,27,28,29,30,31,32,34,35,36,37,38},
	{1,2,3,4,5,6,8,9,10,11,12,13,14,15,16,17,18,19,20,21,23,24,25,26,27,28,29,31,33,34,35,37,38},
	{1,2,3,4,5,6,8,9,10,11,12,13,14,15,16,17,18,19,20,21,23,24,25,26,27,28,29,31,33,34,35,37,38},
	{1,2,3,4,5,6,8,9,10,11,12,13,14,15,16,17,18,19,20,21,23,24,25,26,27,28,29,31,33,34,35,37,38},
	{1,2,3,4,5,6,7,8,9,10,11,12,13,14,16,17,18,19,20,21,22,23,24,25,26,27,28,29,30,31,32,33,34,35,36,37},
	{1,2,4,5,6,7,8,9,10,11,12,13,14,15,16,17,18,19,20,21,22,23,24,25,26,27,28,29,30,31,32,33,34,35,36,37,38},
	{1,2,3,4,5,6,8,9,10,11,12,13,14,15,16,17,18,19,20,21,23,24,25,26,27,28,29,31,33,34,35,37,38},
	{1,2,4,5,6,7,8,9,10,11,12,13,14,15,16,17,18,19,20,21,22,23,24,25,26,27,28,29,30,31,32,33,34,35,36,37,38},
	{1,2,3,4,5,6,7,8,9,10,11,12,13,14,16,17,18,19,20,21,22,23,24,25,26,27,28,29,30,31,32,33,34,35,36,37},
	{1,2,4,5,6,7,8,9,10,11,12,13,14,15,16,17,18,19,20,21,22,23,24,25,26,27,28,29,30,31,32,33,34,35,36,37,38},
	{1,2,3,4,5,6,7,8,9,10,11,12,14,15,16,17,18,19,20,21,22,23,24,25,26,27,28,29,30,31,32,34,35,36,37,38},
	{1,2,3,4,5,6,7,8,9,10,11,12,14,15,16,17,18,19,20,21,22,23,24,25,26,27,28,29,30,31,32,34,35,36,37,38},
	{}];

POTENTIAL_ACT = [{2,3,4,5,6,7,8,9,10,11,12,13,14,15,16,17,18,19,20,21,22,23,24,25,26,27,28,29,30,31,32,33,34,35,36,37,38,39,40,41},
	{2,3,4,5,6,7,8,9,10,11,12,13,14,15,16,17,18,19,20,21,22,23,24,25,26,27,28,29,30,31,32,33,34,35,36,37,38,39,40,41},
	{2,3,4,5,7,8,9,10,11,12,13,15,16,17,18,21,23,24,25,26,27,28,29,30,31,32,33,34,36,38,40,41},
	{2,3,4,5,6,7,8,9,10,11,12,13,14,15,16,17,18,19,20,21,22,23,24,25,26,27,28,29,30,31,32,33,34,35,36,37,38,39,40,41},
	{2,3,4,5,6,7,8,9,10,11,12,13,14,15,16,17,18,19,20,21,22,23,24,25,26,27,28,29,30,31,32,33,34,35,36,37,38,39,40,41},
	{2,3,4,5,6,7,8,9,10,11,12,13,14,15,16,17,18,19,20,21,22,23,24,25,26,27,28,29,30,31,32,33,34,35,36,37,38,39,40,41},
	{2,3,4,5,6,7,8,9,10,11,14,18,19,20,21,22,24,25,26,30,34,35,37,38,39,40,41},
	{2,3,4,5,6,7,8,9,10,11,12,13,14,15,16,17,18,19,20,21,22,23,24,25,26,27,28,29,30,31,32,33,34,35,36,37,38,39,40,41},
	{2,3,4,5,6,7,8,9,10,11,12,13,14,15,16,17,18,19,20,21,22,23,24,25,26,27,28,29,30,31,32,33,34,35,36,37,38,39,40,41},
	{2,3,4,5,6,7,8,9,10,11,12,13,14,15,16,17,18,19,20,21,22,23,24,25,26,27,28,29,30,31,32,33,34,35,36,37,38,39,40,41},
	{2,3,4,5,6,7,8,9,10,11,12,13,14,15,16,17,18,19,20,21,22,23,24,25,26,27,28,29,30,31,32,33,34,35,36,37,38,39,40,41},
	{2,3,4,5,6,7,8,9,10,11,12,13,14,15,16,17,18,19,20,21,22,23,24,25,26,27,28,29,30,31,32,33,34,35,36,37,38,39,40,41},
	{2,3,5,6,7,8,12,13,14,15,16,17,19,20,22,23,24,25,27,28,29,31,32,33,34,35,36,37,38,39},
	{2,3,4,5,6,7,8,9,10,11,12,13,14,15,16,17,18,19,20,21,22,23,24,25,26,27,28,29,30,31,32,33,34,35,36,37,38,39,40,41},
	{4,6,9,10,11,12,13,14,15,16,17,18,19,20,21,22,23,26,27,28,29,30,31,32,33,35,36,37,39,40,41},
	{2,3,4,5,6,7,8,9,10,11,12,13,14,15,16,17,18,19,20,21,22,23,24,25,26,27,28,29,30,31,32,33,34,35,36,37,38,39,40,41},
	{2,3,4,5,6,7,8,9,10,11,12,13,14,15,16,17,18,19,20,21,22,23,24,25,26,27,28,29,30,31,32,33,34,35,36,37,38,39,40,41},
	{2,3,4,5,6,7,8,9,10,11,12,13,14,15,16,17,18,19,20,21,22,23,24,25,26,27,28,29,30,31,32,33,34,35,36,37,38,39,40,41},
	{2,3,4,5,6,7,8,9,10,11,12,13,14,15,16,17,18,19,20,21,22,23,24,25,26,27,28,29,30,31,32,33,34,35,36,37,38,39,40,41},
	{2,3,4,5,6,7,8,9,10,11,12,13,14,15,16,17,18,19,20,21,22,23,24,25,26,27,28,29,30,31,32,33,34,35,36,37,38,39,40,41},
	{2,3,4,5,6,7,8,9,10,11,12,13,14,15,16,17,18,19,20,21,22,23,24,25,26,27,28,29,30,31,32,33,34,35,36,37,38,39,40,41},
	{2,3,4,5,6,7,8,9,10,11,14,18,19,20,21,22,24,25,26,30,34,35,37,38,39,40,41},
	{2,3,4,5,6,7,8,9,10,11,12,13,14,15,16,17,18,19,20,21,22,23,24,25,26,27,28,29,30,31,32,33,34,35,36,37,38,39,40,41},
	{2,3,4,5,6,7,8,9,10,11,12,13,14,15,16,17,18,19,20,21,22,23,24,25,26,27,28,29,30,31,32,33,34,35,36,37,38,39,40,41},
	{2,3,4,5,6,7,8,9,10,11,12,13,14,15,16,17,18,19,20,21,22,23,24,25,26,27,28,29,30,31,32,33,34,35,36,37,38,39,40,41},
	{2,3,4,5,6,7,8,9,10,11,12,13,14,15,16,17,18,19,20,21,22,23,24,25,26,27,28,29,30,31,32,33,34,35,36,37,38,39,40,41},
	{2,3,4,5,6,7,8,9,10,11,12,13,14,15,16,17,18,19,20,21,22,23,24,25,26,27,28,29,30,31,32,33,34,35,36,37,38,39,40,41},
	{2,3,4,5,6,7,8,9,10,11,12,13,14,15,16,17,18,19,20,21,22,23,24,25,26,27,28,29,30,31,32,33,34,35,36,37,38,39,40,41},
	{2,3,4,5,6,7,8,9,10,11,12,13,14,15,16,17,18,19,20,21,22,23,24,25,26,27,28,29,30,31,32,33,34,35,36,37,38,39,40,41},
	{2,3,4,5,6,7,8,9,10,11,14,18,19,20,21,22,24,25,26,30,34,35,37,38,39,40,41},
	{2,3,4,5,6,7,8,9,10,11,12,13,14,15,16,17,18,19,20,21,22,23,24,25,26,27,28,29,30,31,32,33,34,35,36,37,38,39,40,41},
	{2,3,4,5,6,7,8,9,10,11,14,18,19,20,21,22,24,25,26,30,34,35,37,38,39,40,41},
	{2,3,5,6,7,8,12,13,14,15,16,17,19,20,22,23,24,25,27,28,29,31,32,33,34,35,36,37,38,39},
	{2,3,4,5,6,7,8,9,10,11,12,13,14,15,16,17,18,19,20,21,22,23,24,25,26,27,28,29,30,31,32,33,34,35,36,37,38,39,40,41},
	{2,3,4,5,6,7,8,9,10,11,12,13,14,15,16,17,18,19,20,21,22,23,24,25,26,27,28,29,30,31,32,33,34,35,36,37,38,39,40,41},
	{2,3,4,5,6,7,8,9,10,11,14,18,19,20,21,22,24,25,26,30,34,35,37,38,39,40,41},
	{2,3,4,5,6,7,8,9,10,11,12,13,14,15,16,17,18,19,20,21,22,23,24,25,26,27,28,29,30,31,32,33,34,35,36,37,38,39,40,41},
	{4,6,9,10,11,12,13,14,15,16,17,18,19,20,21,22,23,26,27,28,29,30,31,32,33,35,36,37,39,40,41}];
